CapLotSizing_PM/src/Instancias/NCHSHT/25i12p2m/NBA03.OUT
 CG ITER, OVMR, OVMRUB =           1  114160.3906250  114160.3750000
 CG ITER, OVMR, OVMRUB =           2  114160.3906250  114160.3750000
 CG ITER, OVMR, OVMRUB =           3  114160.3750000  114160.3750000
 CG ITER, OVMR, OVMRUB =           4  114160.2968750  114160.3750000
 CG ITER, OVMR, OVMRUB =           5  101881.7343750  114160.3750000
 CG ITER, OVMR, OVMRUB =           6  100969.2031250  114160.3750000
 CG ITER, OVMR, OVMRUB =           7  100197.1328125  114160.3750000
 CG ITER, OVMR, OVMRUB =           8   99662.8750000  114160.3750000
 CG ITER, OVMR, OVMRUB =           9   99072.3125000  114160.3750000
 CG ITER, OVMR, OVMRUB =          10   98691.7265625  114160.3750000
 CG ITER, OVMR, OVMRUB =          11   98317.7890625  114160.3750000
 CG ITER, OVMR, OVMRUB =          12   97949.0156250  114160.3750000
 CG ITER, OVMR, OVMRUB =          13   97590.9296875  114160.3750000
 CG ITER, OVMR, OVMRUB =          14   97305.1250000  114160.3750000
 CG ITER, OVMR, OVMRUB =          15   97074.6953125  114160.3750000
 CG ITER, OVMR, OVMRUB =          16   96869.7812500  114160.3750000
 CG ITER, OVMR, OVMRUB =          17   96563.2343750  114160.3750000
 CG ITER, OVMR, OVMRUB =          18   96390.9531250  114160.3750000
 CG ITER, OVMR, OVMRUB =          19   96217.2343750  114160.3750000
 CG ITER, OVMR, OVMRUB =          20   96165.8828125  114160.3750000
 CG ITER, OVMR, OVMRUB =          21   96038.0156250  114160.3750000
 CG ITER, OVMR, OVMRUB =          22   95976.5390625  114160.3750000
 CG ITER, OVMR, OVMRUB =          23   95873.2656250  114160.3750000
 CG ITER, OVMR, OVMRUB =          24   95778.6015625  114160.3750000
 CG ITER, OVMR, OVMRUB =          25   95663.8046875  114160.3750000
 CG ITER, OVMR, OVMRUB =          26   95575.0546875  114160.3750000
 CG ITER, OVMR, OVMRUB =          27   95465.8359375  114160.3750000
 CG ITER, OVMR, OVMRUB =          28   95376.5937500  114160.3750000
 CG ITER, OVMR, OVMRUB =          29   95310.6718750  114160.3750000
 CG ITER, OVMR, OVMRUB =          30   95240.2500000  114160.3750000
 CG ITER, OVMR, OVMRUB =          31   95181.1953125  114160.3750000
 CG ITER, OVMR, OVMRUB =          32   95138.5781250  114160.3750000
 CG ITER, OVMR, OVMRUB =          33   95020.6718750  114160.3750000
 CG ITER, OVMR, OVMRUB =          34   94925.9375000  114160.3750000
 CG ITER, OVMR, OVMRUB =          35   94836.0546875  114160.3750000
 CG ITER, OVMR, OVMRUB =          36   94783.1406250  114160.3750000
 CG ITER, OVMR, OVMRUB =          37   94702.4453125  114160.3750000
 CG ITER, OVMR, OVMRUB =          38   94662.4531250  114160.3750000
 CG ITER, OVMR, OVMRUB =          39   94604.2500000  114160.3750000
 CG ITER, OVMR, OVMRUB =          40   94581.3984375  114160.3750000
 CG ITER, OVMR, OVMRUB =          41   94519.8906250  114160.3750000
 CG ITER, OVMR, OVMRUB =          42   94480.8046875  106920.8750000
 CG ITER, OVMR, OVMRUB =          43   94413.1015625  106920.8750000
 CG ITER, OVMR, OVMRUB =          44   94348.4843750  106920.8750000
 CG ITER, OVMR, OVMRUB =          45   94318.5156250  106920.8750000
 CG ITER, OVMR, OVMRUB =          46   94256.2187500  106920.8750000
 CG ITER, OVMR, OVMRUB =          47   94228.3906250  106920.8750000
 CG ITER, OVMR, OVMRUB =          48   94189.2812500  106920.8750000
 CG ITER, OVMR, OVMRUB =          49   94175.9062500  106920.8750000
 CG ITER, OVMR, OVMRUB =          50   94100.8281250  106920.8750000
 CG ITER, OVMR, OVMRUB =          51   94096.0156250  106920.8750000
 CG ITER, OVMR, OVMRUB =          52   94070.9609375  106920.8750000
 CG ITER, OVMR, OVMRUB =          53   94054.2187500  106920.8750000
 CG ITER, OVMR, OVMRUB =          54   94044.8046875  106920.8750000
 CG ITER, OVMR, OVMRUB =          55   94035.5156250  106920.8750000
 CG ITER, OVMR, OVMRUB =          56   94016.5000000  106920.8750000
 CG ITER, OVMR, OVMRUB =          57   94013.5390625  106920.8750000
 CG ITER, OVMR, OVMRUB =          58   93991.8750000  106920.8750000
 CG ITER, OVMR, OVMRUB =          59   93978.5937500  106920.8750000
 CG ITER, OVMR, OVMRUB =          60   93959.9140625  106920.8750000
 CG ITER, OVMR, OVMRUB =          61   93948.2031250  106920.8750000
 CG ITER, OVMR, OVMRUB =          62   93930.9687500  106920.8750000
 CG ITER, OVMR, OVMRUB =          63   93935.8906250  106920.8750000
 CG ITER, OVMR, OVMRUB =          64   93916.5781250  106920.8750000
 CG ITER, OVMR, OVMRUB =          65   93922.4765625  106920.8750000
 CG ITER, OVMR, OVMRUB =          66   93926.4062500  106920.8750000
 CG ITER, OVMR, OVMRUB =          67   93902.4375000  106920.8750000
 CG ITER, OVMR, OVMRUB =          68   93899.6093750  106920.8750000
 CG ITER, OVMR, OVMRUB =          69   93887.3828125  106920.8750000
 CG ITER, OVMR, OVMRUB =          70   93868.6640625  106920.8750000
 CG ITER, OVMR, OVMRUB =          71   93851.6718750  106920.8750000
 CG ITER, OVMR, OVMRUB =          72   93845.1718750  106920.8750000
 CG ITER, OVMR, OVMRUB =          73   93845.3437500  106920.8750000
 CG ITER, OVMR, OVMRUB =          74   93839.0468750  106920.8750000
 CG ITER, OVMR, OVMRUB =          75   93832.7187500  106920.8750000
 CG ITER, OVMR, OVMRUB =          76   93823.7421875  106920.8750000
 CG ITER, OVMR, OVMRUB =          77   93822.9843750  106920.8750000
 CG ITER, OVMR, OVMRUB =          78   93832.0703125  106920.8750000
 CG ITER, OVMR, OVMRUB =          79   93823.8828125  106920.8750000
 CG ITER, OVMR, OVMRUB =          80   93826.7734375  104071.5937500
 CG ITER, OVMR, OVMRUB =          81   93821.4765625  104071.5937500
 CG ITER, OVMR, OVMRUB =          82   93818.4531250  104071.5937500
 CG ITER, OVMR, OVMRUB =          83   93815.6328125  104071.5937500
 CG ITER, OVMR, OVMRUB =          84   93804.0703125  103766.2031250
 CG ITER, OVMR, OVMRUB =          85   93808.8437500  103766.2031250
 CG ITER, OVMR, OVMRUB =          86   93805.4062500  103766.2031250
 CG ITER, OVMR, OVMRUB =          87   93802.1406250  103766.2031250
 CG ITER, OVMR, OVMRUB =          88   93797.5234375  103766.2031250
 CG ITER, OVMR, OVMRUB =          89   93798.9843750  103766.2031250
 CG ITER, OVMR, OVMRUB =          90   93796.5468750  103766.2031250
 CG ITER, OVMR, OVMRUB =          91   93795.6093750  103766.2031250
 CG ITER, OVMR, OVMRUB =          92   93796.9531250  103766.2031250
 CG ITER, OVMR, OVMRUB =          93   93794.3281250  103766.2031250
 CG ITER, OVMR, OVMRUB =          94   93796.1640625  103766.2031250
 CG ITER, OVMR, OVMRUB =          95   93799.3671875  103766.2031250
 CG ITER, OVMR, OVMRUB =          96   93797.0546875  102052.1953125
 CG ITER, OVMR, OVMRUB =          97   93798.5078125  102052.1953125
 CG ITER, OVMR, OVMRUB =          98   93791.9531250  100348.7265625
 CG ITER, OVMR, OVMRUB =          99   93793.6093750  100348.7265625
 CG ITER, OVMR, OVMRUB =         100   93796.8828125  100348.7265625
 CG ITER, OVMR, OVMRUB =         101   93793.6562500  100348.7265625
 CG ITER, OVMR, OVMRUB =         102   93794.6250000  100348.7265625
 CG ITER, OVMR, OVMRUB =         103   93790.6562500  100348.7265625
 CG ITER, OVMR, OVMRUB =         104   93795.0312500  100348.7265625
 CG ITER, OVMR, OVMRUB =         105   93790.9218750  100348.7265625
 CG ITER, OVMR, OVMRUB =         106   93788.9843750  100348.7265625
 CG ITER, OVMR, OVMRUB =         107   93794.3593750  100348.7265625
 CG ITER, OVMR, OVMRUB =         108   93794.2656250  100348.7265625
 CG ITER, OVMR, OVMRUB =         109   93793.3203125  100348.7265625
 CG ITER, OVMR, OVMRUB =         110   93790.6484375  100348.7265625
 CG ITER, OVMR, OVMRUB =         111   93791.1953125  100348.7265625
 CG ITER, OVMR, OVMRUB =         112   93790.8828125  100348.7265625
 CG ITER, OVMR, OVMRUB =         113   93787.5625000  100348.7265625
 CG ITER, OVMR, OVMRUB =         114   93793.6093750  100348.7265625
 CG ITER, OVMR, OVMRUB =         115   93791.2890625  100348.7265625
 CG ITER, OVMR, OVMRUB =         116   93790.7109375  100348.7265625
 CG ITER, OVMR, OVMRUB =         117   93792.9062500  100348.7265625
 CG ITER, OVMR, OVMRUB =         118   93791.0625000  100210.3750000
 CG ITER, OVMR, OVMRUB =         119   93789.1718750  100210.3750000
 CG ITER, OVMR, OVMRUB =         120   93793.6953125  100210.3750000
 CG ITER, OVMR, OVMRUB =         121   93792.7421875  100210.3750000
 CG ITER, OVMR, OVMRUB =         122   93791.9140625  100210.3750000
 CG ITER, OVMR, OVMRUB =         123   93789.5859375  100210.3750000
 CG ITER, OVMR, OVMRUB =         124   93789.5859375  100210.3750000
OVLB =   93789.5859375 OVLUB =  100210.3750000 TIME =      61.0099983
